14669
1 0 0 0 0 1 0 0 1 0 0 1 0 0 0 0 0 1 0 0 1 0 0 0 0 0 0 0 0 0 
20 11 20 17 20 5 0 5 8 17 5 8 8 20 0 8 17 17 11 11 17 0 11 17 11 8 17 5 5 11 5 11 20 11 20 20 5 5 0 17 0 8 5 8 5 17 0 20 11 8 5 8 17 5 20 20 17 11 0 17 0 5 20 11 11 11 5 0 5 11 20 20 11 17 5 8 5 20 8 5 20 0 20 17 17 17 17 0 20 5 17 5 17 11 0 5 17 0 11 20 8 17 17 11 17 11 0 11 8 8 17 17 17 11 11 11 5 5 5 5 5 8 11 20 8 0 5 11 0 11 0 11 5 11 8 8 0 5 20 17 0 8 20 17 8 11 11 5 17 5 
